c A SAT instance generated from a 3-CNF formula that had 18 clauses and 6 variables
p cnf 6 18
2 1 -3 0
2 6 5 0
-2 -4 1 0
-3 -4 1 0
-6 -3 2 0
6 -2 -3 0
1 2 3 0
2 -6 4 0
-6 -1 5 0
-1 2 -4 0
4 -6 5 0
-2 4 5 0
-6 5 1 0
2 6 -3 0
-6 -4 -3 0
-1 -2 4 0
3 -6 -2 0
5 -3 -6 0
